128 66
128 50 80 22 32 60 39 54 38 120 76 114 88 97 81 33 110 5 101 99 49 10 25 17 113 20 12 64 68 83 53 24 117 122 125 61 104 16 14 94 4 126 62 56 92 67 91 89 108 119 90 21 96 19 102 98 1 27 34 116 2 74 124 106 85 11 18 30 9 55 15 36 43 58 47 8 41 111 13 45 71 84 103 26 59 72 95 79 48 35 52 86 46 87 75 51 115 42 40 107 121 65 29 7 100 77 105 23 57 78 63 112 31 28 69 66 123 127 93 6 37 44 73 70 82 118 3 109 
